c --- [ banner ] -------------------------------------------------------------
c 
c CaDiCaL Radically Simplified CDCL SAT Solver
c Copyright (c) 2016-2021 A. Biere, M. Fleury, N. Froleyks
c 
c Version 1.5.2 a5f15211db36c3956764e18194dd5bd63bf3b5e6
c g++ (GCC) 9.3.0 -Wall -Wextra -O3 -DNDEBUG
c Fri Oct 21 01:27:37 EDT 2022 Linux gra-login3 3.10.0-1160.66.1.el7.x86_64 x86_64
c 
c --- [ limit ] --------------------------------------------------------------
c 
c setting conflict limit to 200000 conflicts (due to '200000')
c 
c --- [ parsing input ] ------------------------------------------------------
c 
c reading DIMACS file from '33.cubes1235.adj'
c opening file to read '33.cubes1235.adj'
c found 'p cnf 6160 1595480' header
c parsed 1595480 clauses in 19.57 seconds process time
c closing file '33.cubes1235.adj'
c after reading 1457566808 bytes 1390.0 MB
c 
c --- [ options ] ------------------------------------------------------------
c 
c all options are set to their default value
c 
c --- [ solving ] ------------------------------------------------------------
c 
c time measured in process time since initialization
c 
c  seconds    reductions  redundant   irredundant
c          MB     restarts       trail       variables
c            level   conflicts       glue         remaining
c 
c * 19.57 1368  0 0   0    0    0  0% 0 1595422 2320 38%
c { 19.82 1385  0 0   0    0    0  0% 0 1595422 2320 38%
c i 20.24 1400 1182 0   0    5    4 33% 1 1595422 2313 38%
c i 20.50 1415 1134 0   0   19   17 36% 1 1595422 2279 37%
c i 26.15 1502 303 0  24  123  101 30% 22 1595422 2277 37%
c i 26.15 1502 301 0  24  124  101 30% 22 1595422 2276 37%
c i 26.15 1502 298 0  24  125  101 30% 22 1595422 2275 37%
c i 27.97 1509 219 0  46  210  173 29% 30 1595422 2274 37%
c i 28.00 1509 217 0  46  212  173 29% 30 1595422 2273 37%
c i 28.62 1512 201 0  53  240  195 29% 30 1595422 2270 37%
c i 29.10 1512 194 0  58  272  222 29% 31 1595422 2269 37%
c i 29.11 1512 193 0  58  273  222 29% 31 1595422 2268 37%
c - 33.69 1474 182 1  60  300  242 29% 31 350722 2268 37%
c i 33.92 1387 181 1  61  306  247 29% 31 350722 2267 37%
c i 33.99 1387 180 1  61  312  248 29% 30 350722 2262 37%
c i 34.25 1387 178 1  63  323  258 29% 32 350722 2261 37%
c i 34.66 1387 172 1  69  354  286 29% 31 350722 2260 37%
c i 34.68 1387 172 1  69  362  292 28% 30 350722 2259 37%
c i 34.96 1387 172 1  70  394  319 28% 31 350722 2257 37%
c i 34.96 1387 171 1  70  396  319 28% 31 350722 2255 37%
c 
c  seconds     reductions  redundant   irredundant
c          MB      restarts       trail       variables
c             level   conflicts       glue         remaining
c 
c i 35.04 1387 169 1  70  405  327 28% 31 350722 2254 37%
c i 35.06 1387 168 1  70  408  328 28% 31 350722 2253 37%
c i 35.19 1387 165 1  71  429  342 28% 31 350722 2247 36%
c i 35.28 1387 164 1  73  440  352 28% 32 350722 2246 36%
c i 35.42 1387 163 1  75  451  361 28% 33 350722 2245 36%
c i 35.48 1387 159 1  79  463  365 28% 32 350722 2244 36%
c i 35.58 1387 158 1  80  467  368 28% 32 350722 2243 36%
c i 35.64 1387 156 1  81  475  372 28% 32 350722 2242 36%
c i 35.65 1387 156 1  81  476  372 28% 32 350722 2241 36%
c i 35.65 1387 155 1  81  477  372 28% 32 350722 2240 36%
c i 35.74 1387 150 1  81  496  385 28% 31 350722 2239 36%
c i 36.01 1387 145 1  82  533  419 28% 31 350722 2238 36%
c i 36.02 1387 144 1  82  538  422 28% 31 350722 2237 36%
c i 36.02 1387 143 1  82  539  422 28% 31 350722 2236 36%
c i 36.03 1387 142 1  82  547  427 28% 31 350722 2235 36%
c i 36.04 1387 141 1  82  551  428 28% 31 350722 2234 36%
c i 36.07 1387 138 1  82  564  439 28% 31 350722 2233 36%
c i 36.08 1387 138 1  82  566  440 28% 30 350722 2232 36%
c i 36.45 1387 129 1  82  623  489 28% 30 350722 2231 36%
c i 36.71 1388 125 1  82  656  509 28% 31 350722 2230 36%
c 
c  seconds     reductions  redundant   irredundant
c          MB      restarts       trail       variables
c             level   conflicts       glue         remaining
c 
c i 36.89 1388 119 1  84  710  555 28% 30 350722 2229 36%
c i 36.95 1388 117 1  84  726  567 28% 30 350722 2228 36%
c i 37.06 1388 112 1  84  762  596 28% 29 350722 2227 36%
c i 37.07 1388 112 1  84  765  598 28% 29 350722 2226 36%
c i 37.07 1388 111 1  84  769  601 28% 29 350722 2225 36%
c i 37.17 1388 107 1  84  812  629 28% 28 350722 2224 36%
c i 37.19 1388 105 1  84  826  641 28% 28 350722 2223 36%
c i 37.25 1388 102 1  84  859  667 28% 27 350722 2222 36%
c i 37.28 1388 100 1  84  886  683 28% 27 350722 2221 36%
c i 37.37 1388 96 1  84  921  707 28% 26 350722 2220 36%
c } 37.79 1388 89 1  84 1002  769 28% 25 350722 2220 36%
c [ 37.79 1388  0 1  84 1002  769  0% 0 350722 2220 36%
c O 37.80 1388  4 1  84 1003  770 14% 1 350722 2220 36%
c i 38.23 1388 12 1  84 1037  791 21% 6 350722 2219 36%
c i 38.25 1388 12 1  84 1041  793 21% 7 350722 2218 36%
c i 38.37 1388 15 1  84 1054  804 23% 10 350722 2217 36%
c i 38.39 1388 16 1  84 1060  808 24% 11 350722 2216 36%
c i 38.39 1388 16 1  84 1062  809 24% 11 350722 2215 36%
c i 38.42 1388 16 1  84 1077  822 25% 11 350722 2214 36%
c i 38.44 1388 16 1  84 1085  827 26% 11 350722 2213 36%
c 
c  seconds    reductions  redundant   irredundant
c          MB     restarts       trail       variables
c            level   conflicts       glue         remaining
c 
c i 38.44 1388 16 1  84 1086  827 26% 11 350722 2212 36%
c i 38.46 1388 16 1  84 1095  834 26% 12 350722 2211 36%
c i 38.50 1388 16 1  84 1109  843 26% 11 350722 2210 36%
c i 38.51 1388 16 1  84 1117  847 27% 11 350722 2209 36%
c i 38.53 1388 16 1  84 1121  850 27% 11 350722 2208 36%
c i 38.54 1388 16 1  84 1124  852 27% 11 350722 2207 36%
c i 38.57 1388 16 1  84 1142  864 27% 11 350722 2206 36%
c i 38.63 1388 16 1  84 1152  870 27% 12 350722 2205 36%
c i 38.67 1388 16 1  84 1159  875 27% 12 350722 2204 36%
c i 38.67 1388 16 1  84 1163  877 27% 12 350722 2203 36%
c i 38.71 1388 16 1  84 1169  882 28% 12 350722 2202 36%
c i 38.71 1388 15 1  84 1170  882 28% 11 350722 2201 36%
c i 38.71 1388 15 1  84 1172  883 28% 11 350722 2200 36%
c i 38.73 1388 15 1  84 1182  890 28% 12 350722 2199 36%
c i 38.74 1388 15 1  84 1185  892 28% 11 350722 2198 36%
c i 38.75 1388 15 1  84 1192  895 28% 12 350722 2197 36%
c i 38.75 1388 15 1  84 1193  895 28% 12 350722 2196 36%
c i 38.75 1388 15 1  84 1197  898 28% 11 350722 2195 36%
c i 38.78 1388 16 1  84 1217  913 28% 12 350722 2194 36%
c - 39.52 1520 17 2  84 1227  806 28% 12 350500 2194 36%
c 
c  seconds    reductions  redundant   irredundant
c          MB     restarts       trail       variables
c            level   conflicts       glue         remaining
c 
c i 39.93 1520 22 2  84 1386  936 29% 17 350500 2193 36%
c - 41.73 1520 33 3  85 2617 1517 31% 28 350497 2193 36%
c i 42.57 1520 33 3  85 3001 1777 50% 28 350497 2192 36%
c i 42.58 1520 33 3  85 3003 1776 50% 28 350497 2191 36%
c ] 42.58 1520 33 3  85 3003 1776 50% 28 350497 2191 36%
c { 42.58 1520 89 3  85 3003 1776 79% 25 350497 2191 36%
c I 42.61 1520 89 3  85 3004 1777 79% 25 350497 2191 36%
c i 42.77 1520 88 3  85 3026 1798 78% 25 350497 2190 36%
c i 44.52 1520 67 3  95 3616 2240 66% 23 350497 2189 36%
c i 44.93 1520 66 3 108 3681 2293 65% 24 350497 2188 36%
c i 45.13 1520 66 3 112 3703 2313 65% 24 350497 2187 36%
c i 45.67 1520 62 3 124 3861 2427 64% 23 350497 2186 35%
c - 47.34 1518 54 4 143 4470 1977 59% 22 350476 2186 35%
c i 47.84 1518 54 4 169 4668 2149 58% 22 350476 2185 35%
c d 50.09 1519 54 4 223 5000 2430 56% 24 350281 2172 35%
c p 56.96 1519 54 4 223 5000 5396 56% 24 350281 2150 35%
c F 58.54 1519 46 4 229 6005 6109 53% 22 350281 2150 35%
c - 61.93 1390 43 5 271 6787 2707 52% 22 350216 2150 35%
c } 62.35 1390 43 5 278 7006 2860 52% 22 350216 2150 35%
c [ 62.35 1390 33 5 278 7006 2860 50% 28 350216 2150 35%
c 
c  seconds    reductions  redundant   irredundant
c          MB     restarts       trail       variables
c            level   conflicts       glue         remaining
c 
c - 63.65 1392 26 6 280 9568 2911 50% 23 350216 2150 35%
c B 63.87 1392 25 6 280 10006 3146 50% 22 350216 2150 35%
c ] 64.81 1392 26 6 281 10808 3619 50% 22 350216 2150 35%
c 1 64.81 1392 26 6 281 10808 3619 50% 22 350216 2150 35%
c 
c --- [ writing output ] -----------------------------------------------------
c 
c writing simplified CNF to DIMACS file 'simp/33.cubes1235.adj.simp1'
c * 64.81 1392 26 6 281 10808 3619 50% 22 350216 2150 35%
c opening file to write 'simp/33.cubes1235.adj.simp1'
c writing 'p cnf 6160 350216' header
c closing file 'simp/33.cubes1235.adj.simp1'
c after writing 143646326 bytes 137.0 MB
c wrote 350216 clauses in 1.06 seconds process time
c 
c --- [ writing extension ] --------------------------------------------------
c 
c writing extension stack to 'simp/33.cubes1235.adj.ext1'
c opening file to write 'simp/33.cubes1235.adj.ext1'
c closing file 'simp/33.cubes1235.adj.ext1'
c after writing 13207 bytes 0.0 MB
c wrote 879 witnesses in 0.00 seconds process time
c 
c --- [ result ] -------------------------------------------------------------
c 
s SATISFIABLE
c 
c --- [ run-time profiling ] -------------------------------------------------
c 
c process time taken by individual solving procedures
c (percentage relative to process time for solving)
c 
c        37.80   83.55% search
c        30.30   66.99% unstable
c        19.57   43.25% parse
c         7.44   16.45% simplify
c         7.24   16.00% stable
c         6.79   15.01% probe
c         0.26    0.57% lucky
c         0.06    0.12% ternary
c   =================================
c        45.24   68.69% solve
c 
c last line shows process time for solving
c (percentage relative to total process time)
c 
c --- [ statistics ] ---------------------------------------------------------
c 
c chronological:              2322        21.48 %  of conflicts
c conflicts:                 10808       238.91    per second
c decisions:                 38140       843.10    per second
c fixed:                       853        13.85 %  of all variables
c learned:                   10544        97.56 %  per conflict
c learned_lits:            1753512       100.00 %  learned literals
c minimized:                     0         0.00 %  learned literals
c shrunken:                1105419        63.04 %  learned literals
c minishrunken:             115762         6.60 %  learned literals
c propagations:            1685417         0.04 M  per second
c reduced:                    3839        35.52 %  per conflict
c rephased:                      4      2702.00    interval
c restarts:                    281        38.46    interval
c stabilizing:                   2        53.69 %  of conflicts
c substituted:                  13         0.21 %  of all variables
c subsumed:                   3041         0.09 %  of all clauses
c ternary:                     822         0.52 %  of resolved
c weakened:                     26         2.00    average size
c 
c seconds are measured in process time for solving
c 
c --- [ resources ] ----------------------------------------------------------
c 
c total process time since initialization:        65.86    seconds
c total real time since initialization:           66.00    seconds
c maximum resident set size of process:         1651.70    MB
c 
c --- [ shutting down ] ------------------------------------------------------
c 
c exit 10
WARNING! DIMACS header mismatch: wrong number of variables.
============================[ Problem Statistics ]=============================
|                                                                             |
|  Number of variables:          6120                                         |
|  Number of clauses:          350218                                         |
|  Parse time:                   1.92 s                                       |
|  Simplification time:          0.06 s                                       |
|                                                                             |
============================[ Search Statistics ]====================================================
| Conflicts |          ORIGINAL         |          LEARNT          | Num Sols |      SUBGRAPHS      |
|           |    Vars  Clauses Literals |    Limit  Clauses Lit/Cl |          | Canonical Noncanon. |
=====================================================================================================
|       338 |    6026   350456 31508438 |     2000      338     28 |        0 |        90       238 |
|      1909 |    6026   351877 31533462 |     2000     1909     19 |        0 |       337      1659 |
|      2337 |    6026   352080 31537825 |     3600     1337     28 |        0 |       383      1862 |
|      2675 |    6026   352081 31537878 |     3600     1675     41 |        0 |       400      1863 |
|      3190 |    6026   352090 31538246 |     3600     2190     56 |        0 |       414      1872 |
|      3983 |    6026   352124 31539107 |     3600     2983     67 |        0 |       441      1906 |
|      5130 |    6026   352132 31539447 |     5004     2334     40 |        0 |       450      1914 |
|      8078 |    6026   353372 31559738 |     6303     2781     19 |        0 |       642      3154 |
|     10734 |    6026   353466 31562960 |     6303     5437     61 |        0 |       748      3248 |
|     16661 |    6026   355549 31600065 |     8776     4437     32 |        0 |      1230      5331 |
|     25683 |    6026   358805 31654750 |     9992     9075     39 |        0 |      2042      8587 |
|     52251 |    6015   376724 31962553 |    14812    12063     44 |        0 |      4100     26506 |
|     82681 |    6015   394180 32240688 |    19615     9296     12 |        0 |      6999     43962 |
|    106680 |    6015   398718 32315839 |    22013    13093     28 |        0 |      8637     48500 |
|    140976 |    6015   403822 32408861 |    25615    12591     18 |        0 |      9880     53604 |
|    204686 |    6015   423743 32721512 |    30432    21518     48 |        0 |     14352     73525 |
|    293895 |    6015   447268 33079498 |    36411    28706     41 |        0 |     19765     97050 |
|    419630 |    6015   473476 33478593 |    43621    36251     58 |        0 |     24257    124259 |
|    599842 |    6015   505899 33951153 |    52027    51269     57 |        0 |     30031    156682 |
|    917080 |    5986   501870 33643398 |    65062    49342     38 |        0 |     46724    252237 |
=====================================================================================================
Number of solutions   : 0
Canonical subgraphs   : 53598          (37 /sec)
          order  3    : 1              (166667 /sec)
          order  4    : 1              (500000 /sec)
          order  5    : 1              (250000 /sec)
          order  6    : 1              (55556 /sec)
          order  7    : 1              (8850 /sec)
          order  8    : 2              (1356 /sec)
          order  9    : 8              (365 /sec)
          order 10    : 41             (136 /sec)
          order 11    : 275            (56 /sec)
          order 12    : 1894           (44 /sec)
          order 13    : 13790          (46 /sec)
          order 14    : 5276           (54 /sec)
          order 15    : 12611          (42 /sec)
          order 16    : 12917          (33 /sec)
          order 17    : 4245           (23 /sec)
          order 18    : 1979           (22 /sec)
          order 19    : 401            (23 /sec)
          order 20    : 83             (25 /sec)
          order 21    : 71             (26 /sec)
          order 22    : 0              (-nan /sec)
Noncanonical subgraphs: 286923         (314 /sec)
          order  3    : 0              (-nan /sec)
          order  4    : 0              (-nan /sec)
          order  5    : 0              (-nan /sec)
          order  6    : 0              (-nan /sec)
          order  7    : 0              (-nan /sec)
          order  8    : 0              (-nan /sec)
          order  9    : 0              (-nan /sec)
          order 10    : 0              (-nan /sec)
          order 11    : 0              (-nan /sec)
          order 12    : 0              (-nan /sec)
          order 13    : 24979          (2682 /sec)
          order 14    : 195110         (324 /sec)
          order 15    : 28544          (374 /sec)
          order 16    : 27430          (251 /sec)
          order 17    : 10748          (95 /sec)
          order 18    : 30             (377 /sec)
          order 19    : 3              (60 /sec)
          order 20    : 1              (32258 /sec)
          order 21    : 0              (-nan /sec)
Canonicity checking   : 1434.66 s
Noncanonicity checking: 913.842 s
Total canonicity time : 2348.5 s
database reductions   : 54
restarts              : 2046
conflicts             : 994297         (324 /sec)
decisions             : 1535248        (0.00 % random) (500 /sec)
propagations          : 99885633       (32510 /sec)
conflict literals     : 83852767       (51.16 % deleted)
actual reward         : 0.110504
Memory used           : 469.00 MB
CPU time              : 3072.42 s

UNSATISFIABLE
